Maximize
 45x1 + 48x2 + 35x3 + 51x4 + 21x5
Subject To
 5x1 + 8x2 + 3x3 + 5x4 + 3x5 <= 12
Bounds
 0 <= x1 <= 1
 0 <= x2 <= 1
 0 <= x3 <= 1
 0 <= x4 <= 1
 0 <= x5 <= 1
General
 x1 x2 x3 x4 x5
End